1000 2028
1 2 3 4 5 6 7 8 9 10 11 12 13 14 15 16 17 18 19 20 21 22 23 24 25 26 27 28 29 30 31 32 33 34 35 36 37 38 39 40 41 42 43 44 45 46 47 48 49 50 51 52 53 54 55 56 57 58 59 60 61 62 63 64 65 66 67 68 69 70 71 72 73 74 75 76 77 78 79 80 81 82 83 84 85 86 87 88 89 90 91 92 93 94 95 96 97 98 99 100 101 102 103 104 105 106 107 108 109 110 111 112 113 114 115 116 117 118 119 120 121 122 123 124 125 126 127 128 129 130 131 132 133 134 135 136 137 138 139 140 141 142 143 144 145 146 147 148 149 150 151 152 153 154 155 156 157 158 159 160 161
0 11 27 162 163 164 165 166 167 168 169 170 171 172 173 174 175 176 177 178 179 180 181 182 183 184 185 186 187 188 189 190 191 192 193 194 195 196 197 198 199 200 201 202 203 204 205 206 207 208 209 210 211 212 213 214 215
0 140 216 217 218 219 220 221 222 223 224 225 226 227 228 229 230 231 232 233 234 235 236 237 238 239 240 241 242 243 244 245
0 87 144 246 247 248 249 250 251 252 253 254 255 256 257 258 259 260 261 262 263 264 265 266 267 268 269 270 271 272 273 274 275 276 277 278 279 280 281 282 283 284 285 286 287 288 289 290 291 292 293 294 295 296 297 298 299 300 301 302 303 304 305 306 307 308 309 310 311 312
0 104 313 314 315 316 317 318 319 320 321 322 323 324 325 326 327 328 329 330 331 332 333 334 335 336 337 338 339 340 341 342 343 344 345 346 347 348 349 350 351 352 353 354 355 356 357 358 359 360 361 362 363 364 365 366 367 368 369 370 371 372 373 374 375 376 377 378 379 380 381 382 383 384 385 386 387 388 389 390 391 392 393 394 395 396 397 398 399 400 401 402 403 404 405 406 407 408 409 410 411 412 413 414 415 416
0 13 36 68 417 418 419 420 421 422 423 424 425 426 427 428 429 430 431 432 433 434 435 436 437 438 439 440 441 442 443 444 445 446 447 448 449 450 451 452 453 454 455 456 457 458 459 460 461 462 463 464 465 466 467 468 469 470 471 472 473 474 475 476 477 478 479 480 481 482 483 484 485 486 487 488 489 490 491 492 493 494 495 496 497 498 499 500 501 502 503 504 505 506 507 508 509 510 511 512 513 514 515 516 517 518 519 520 521 522 523 524 525 526 527 528 529 530 531 532 533 534 535 536 537 538 539 540 541 542 543 544 545 546 547 548 549 550 551 552 553 554 555 556 557 558 559 560 561 562 563 564 565 566 567 568 569 570 571 572 573 574 575 576 577 578 579 580 581 582 583 584 585 586 587 588 589 590 591 592 593 594 595 596 597 598 599 600 601 602 603 604 605 606 607 608 609 610 611 612 613 614 615 616 617 618 619 620 621 622 623 624 625 626 627 628 629 630 631 632 633 634 635 636 637 638 639 640 641 642 643 644 645 646 647 648 649 650 651 652 653 654 655 656 657 658 659 660 661 662 663 664 665 666 667 668 669 670 671 672 673 674 675 676 677 678 679 680 681 682 683 684 685 686 687 688 689 690 691 692 693 694 695 696 697 698 699 700 701 702 703 704 705 706 707 708 709 710 711 712 713 714 715 716 717 718 719 720 721 722 723 724 725 726 727 728 729 730 731 732 733 734 735 736 737 738 739 740 741 742 743 744 745 746 747 748 749 750 751 752 753 754 755 756 757 758 759 760 761 762 763 764 765 766 767 768 769 770 771 772 773 774 775 776 777 778 779 780 781 782 783 784 785 786 787 788 789 790 791 792 793 794 795 796 797 798 799 800 801 802 803 804 805 806 807 808 809 810 811 812 813 814 815 816 817 818 819 820 821 822 823 824 825 826 827 828 829 830 831 832 833 834 835 836 837 838 839 840 841 842 843 844 845 846 847 848 849 850 851 852 853 854 855 856 857 858 859 860 861 862 863 864 865 866 867 868 869 870 871 872 873 874 875 876 877 878 879 880 881 882 883 884 885 886 887 888 889 890 891 892 893 894 895 896 897 898 899 900 901 902 903 904 905 906 907 908 909 910 911 912 913 914 915 916 917 918 919 920 921 922 923 924 925 926 927 928 929 930 931 932 933 934 935 936 937 938 939 940 941 942 943 944 945 946 947 948 949 950 951 952 953 954 955 956 957 958 959 960 961 962 963 964 965 966 967 968 969 970 971 972 973 974 975 976 977 978 979 980 981 982 983 984 985 986 987 988 989 990 991 992 993 994 995 996 997 998 999
0 31 32 50 78 88 94 133 141
0
0 146 153
0 37 39 41 43 58 61 72 147 149 156 160
0 81
0 1 27 60 78 179
0 46
0 5 68 152 153 154
0
0 18 55 56 63 80 103 122 127 142
0 25 56 63 122 142
0
0 15 23 31 35 55 56 63 80 103 108 121 122 124 133 142 150 157
0
0 61 96 288
0 26 27 37 61 68 70 100 124 138 146 152 153
0 96 171 205 218
0 18 55 80 103 122 127 133 142 158 306
0 31 40 93 115 117 131 134
0 16 31 81
0 21 34 37 39 43 61 62 82 98 128 153 160 204
0 1 11 21 31 37 53 58 60 61 70 78 81 94 110 128 147 160 179 383
0
0 32 61 78 143 222 231 233
0 128 146 153
0 6 18 24 25 27 39 41 46 48 54 55 56 61 63 75 78 80 81 94 95 103 108 118 122 124 127 133 142 145 146 150 151 158
0 6 29 78
0
0 26 46 178 216 225 241
0 18 50 55 56 103 108 142 387
0 5 124 138 153
0 9 21 26 27 39 58 61 98 109 146 160 179 186
0 100 161
0 9 26 31 37 61 75 77 85 116 128 146 160 223 224
0 24 216
0 9 31 62 229
0
0 9 26 85 128 146 151 156
0 63 78 94 155
0 124 138 153
0 12 31 34 47 115
0 46
0 31 93 160
0
0 6 35 77 160 327 384
0
0 61 81
0 27 70 153
0 31 56 78 192 204
0 15 18 23 31 35 56 63 80 103 108 121 122 133 142 157
0 15 16 18 31 35 54 55 63 80 103 108 117 121 122 127 133 142 145 150 157 158
0
0 9 27 37 85 146
0 378 403
0 11 27 78 408
0 9 20 21 26 27 29 31 37 39 52 69 81 82 92 95 116 128 136 146 153 156 160 178 187 214 218 244
0 26 41 146
0 15 16 18 31 44 55 56 83 122 133 142 145
0 123
0
0 119 403 406
0
0 5 13 21 152 153 154
0 61 81 205 232
0 21 27 53 82 102 128 135 210 245
0 223 231 241
0 9 160
0 119 155
0 210
0 31 39 77 93 178 187 190
0 153
0 39 50 75 160 190
0 6 11 27 29 31 32 44 54 60 141 143 179
0
0 15 18 23 31 55 56 103 108 121 134 142 157 158 398
0 10 25 27 31 52 61 69 92 128
0 26 61 70 128 146 153
0 63 97
0
0 39 43 58 116 146 149 223 229
0
0 3 254 265 269 280 281 286 303 308
0 6 349
0 117 130 134 142
0
0
0 61 81
0 24 48 75 160 179
0 6 27 31 44 141
0 31 61 146 160
0 20 22 197
0 83
0 26 37 160
0
0 21 38 161 168
0 124 153 154
0 70 153 196
0 15 18 23 31 35 55 56 80 108 121 122 127 133 142 157 343
0 4 318 325 349 361 362 389 401 408 410
0 115
0
0 118
0 18 31 35 55 56 80 103 121 122 133 142 157 158
0 37 124 153 154
0 27
0 139
0
0 123 124 153 154 638
0 161
0 24 46 105 117 142
0 39 61 85 146 153 229
0 24 56 89 115 130 142
0 31 107 141 179
0 66 73
0
0 18 55 56 80 103 108 122 130 158
0 15 16 18 23 31 55 56 63 103 108 121 133 142 157
0 64 113 124 152 153
0 18 21 31 36 45 101 109 113 123 138 153 154
0
0 128 146 153 234
0 15 23 31 56 103
0 26 27 30 39 43 61 70 81 82 126 135 146 153 160
0
0 89 117 121
0 24
0 138
0 6 18 23 31 55 56 63 103 108 122 150 157
0 24 80 89 157 348
0 70 128 383
0 61
0 140 222 224 231 232 235 238 244
0 21 36 45 124 132
0 111
0 2 137 219 224 227 231
0 6 78 94 118
0 15 16 18 23 31 35 55 56 63 80 89 103 108 115 117 122 158
0 29 78
0 3 260 279 302
0 31 56 63
0 8 21 30 31 37 39 43 58 61 62 82 85 95 116 126 128 153
0 9 27 235
0
0 9 85
0 18 31 56 133 158
0 31 43 383
0 13 21 68 123 153
0 8 13 21 26 30 36 45 53 61 68 76 82 101 102 109 113 116 123 124 126 128 146 152 154
0 13 68 101 109 113 124 153 442
0 44 73
0 9 43 61 223
0 18 55 56 80 103 108 122 133 134 158
0 23 31 56 80 108 121 142 150 157
0
0 9 26 27 37 39 48 50 61 72 77 93 95 98 128 223 356
0 38 100 114
1 167 178 184 211
1 167 190 383
1 193
1 172 176 181 182 202 215 384
1
1 162 163 172 184 187 190 193 196 206
1 100 173
1
1
1 22 218
1 165 167 176 180 181 182 184 185 190 191 194 202 206 213 215 357
1 168 178 186 187 204 205
1
1 221
1 165 172 181 182 191 202 208
1 221
1 34 61 75 162 173 184 205
1 11 27 37 78 93 118
1 172 182 194 202 215
1 165 172 176 182 191 202
1 165 172 176 180 181 191 194 202 215
1
1 162 167 172 178 187 188 189 204 211
1 172 196
1 37 173
1 61 75 167 173 184 190 205
1 184 197
1 184 221 235
1 75 77 163 167 172 187 404
1 172 176 181 182 197 202
1 54
1 164 167 196 200 404
1 172 180 182 202 215
1
1 102 167 185 193
1 96 188 191
1
1 228
1 193
1
1 165 172 176 180 181 182 191 194 213 215
1
1 26 54 173 184 230
1 22 69 173 178 187 231
1 167 172
1
1 176
1
1 70 74
1 162 184
1
1 172 202
1 61
1 165 172 180 182 194 202
2 34 40 235
2 219 225 226 231 232 233 241 244
2 22 61 171 383
2 140 217 223 225 226 227 229 233 238 241 244
2
2 175 177 189 262 389 514 638 712 754 785 794 862 921 942 969
2 29 137 231
2 39 71 85 156 160 219 225 241 244
2 39 137 140 226 227 231 233
2 34 217 219 223 229 241 244
2 217 219 224 241
2 140 219 224 232 233 235 241 243
2 199 234 236 239
2 41 85 116 219 225 233 244
2 204 244
2 29 71 137 140 205 217 222 224 232 233 240 244
2 69 137 217 227 231 238 240
2 29 217 219 224 227 229 231 238 240 241 242
2 126 228 236
2 137 147 189 216 227 243 399
2 228 234
2 241 245
2 137 219 232 233 241 243
2 228
2 231 232 233
2 34 71 217 219 223 225 226 227 233 237 238 244
2 233
2 227 235 238
2 61 137 217 219 223 225 229 230 231 241
2 70 237
3 263
3 252 257 260 262 264 267 269 270 274 275 277 280 282 284 290 292 293 300 301 302 309 310 374
3 260 302
3 270 281 285 287 290 294
3 302
3 540
3 247 267 284 289 292
3 264 302 304
3 87 255 265 269 271 277 280 281 285 286 291 299 307 308 311
3 254 265 277 280 281 307
3 257 273 275 294
3 247 256 267 274 282 284 289 292 300
3
3 277 286 302
3 144 247 248 264 277 290 295 300 302
3
3 221 247 265 273 275 280 285 290 301 311
3 246
3 247 253 260 270 273 275 288 290 301 302 304 307
3 87 254 255 262 269 271 272 277 280 285 286 291 311
3 302 310
3 247 252 257 270 274 282 284 289 290 292 293 309 310
3 295
3 87 247 254 265 271 277 280 281 285 286 291 308 311
3 247 249 264 267 274 280 284 287 292 293 301
3 254 265 269 275 277 281 285 286
3 265
3 256 262 264 275 287 290 301 302 307
3 247 257 267 270 282 284 290 292 293 298 309 310
3 247 256 262 264 271 273 287 288 290 301 302 307
3
3 247 254 255 259 260 265 269 271 280 286 302 308 311
3 279 283 297
3 144 278 283 297
3 87 247 254 255 262 265 269 270 277 281 284 285 286 287 296 308 311
3 87 249 254 255 269 271 280 285 286 287 308
3 247 257 267 274 284 292 300
3 278 279
3 247 252 257 267 270 274 280 282 289 292 293 309 310
3 249 254 262 265 269 271 280 281 286 287 291 294 305 307 308 365 454
3 87 254 259 265 269 271 277 280 281 285 291 296 307 308 466
3 249 270 273 275 280 281 285 290 292 294 301
3 20 264 275 301 302
3 252 257 267 284 290 292 293 300 309
3 247 249 260 262 264 267 273 274 275 287 289 301 307 309 310
3 254 265 269 285 286
3 247 252 257 267 270 274 282 284 287 289 293 300 309 310
3 247 267 270 274 284 289 292 309
3 249 256 285 287 307
3 260 268 302 308
3 280 286
3 278 279
3 274 363 365
3 254
3 247 257 260 282 289 292
3 247 262 264 270 273 275 287 288 290 307
3 144 247 248 250 253 259 260 264 266 273 275 277 288 295
3 87
3 253 264
3 285
3 23
3 254 255 264 273 275 285 286 290 294 301
3 87 254 269 277 280 281 285 286 295
3 247 267 274 284 289 290 292 293
3 247 266 267 274 284 290 292 374
3 254 262 265 269 277 280
3
4
4 383 411
4
4 318
4 350 358
4 104 316 320 321 385 408 410 414
4 345 384
4 318 321 325 337 350 361 385 396 400 402 408
4 318 320 325 337 340 347 350 361 385 387
4
4
4 325 347
4 104 320 321 324 337 347 350 361 379 382 396 405 408
4
4 50
4
4
4 339 348 368 398 406 412
4 377
4
4
4
4
4 340 371 392
4 320 321 325 350 361 396 402 408
4
4 330
4 321 336 401 408
4
4 359 387 405
4 103
4
4 319
4
4 321 324 325 361 410
4 134 330
4 88 104 385 387
4 317 320 321 325 337 396 400 402
4
4
4 377
4 397
4
4 160 406
4 172 398
4 317
4 342 387 396 402 405
4 406
4 104 320 321 325 337 347 396
4 104 410
4 298 365
4 416
4 285 298 363 406
4
4 415
4 330 374
4
4 415
4 336 401
4
4 377
4 247 310 368
4
4
4 331 353 373 378 380 388 412
4 59 377
4 325 387 405
4 377
4
4 325
4 27 135 151 163 218 314 411
4 50 165 319 386 398
4 318 320 321 349
4 384 398 403
4 35 321 342 349 359 379 396 405
4 377
4 104 221 410
4
4 411
4 336 401 408
4
4
4
4 320 325 337 350 359 361 387 402 405
4 354 414
4 80 330 357 384 386
4 235
4 320 350
4 104 340 371 392 408
4 320 337 350 359 396
4 59 66 386
4 190 193
4 325 342 359 379 387 396
4 66 330 356 360 365
4
4 60 104 318 320 325 337 340 392 401 410
4
4 104 318 347 362 389 408
4 314 383 391
4 330 377
4
4 318 397
4 367 370
4 364
5 483
5
5
5
5
5
5
5
5
5
5
5
5
5
5
5
5
5
5 602
5
5
5 506
5
5
5 478
5 154
5
5
5
5 907
5
5
5
5 505
5
5
5
5 285
5
5
5
5
5
5
5 562
5 599
5
5
5
5 286
5
5
5
5 923
5
5 518 535
5
5
5
5
5
5 441
5
5
5
5
5 417
5 623
5
5
5
5 603
5
5
5
5
5
5
5
5
5
5
5
5
5 990
5
5 880
5
5 450
5 438
5
5
5 617 737
5
5
5
5
5 221
5
5
5
5 472 622
5
5 524
5
5
5
5 520 935
5
5
5
5
5
5
5
5
5
5
5 472
5
5 606
5
5
5 251
5 594
5 735
5 765
5
5
5
5
5 721
5
5
5
5 852
5
5
5
5 772
5
5
5
5
5
5 461 727 921
5
5
5 878 921
5
5
5
5
5
5
5
5 840
5
5
5
5
5
5
5
5
5
5
5
5
5
5
5
5
5
5
5
5
5 541
5
5
5
5
5 462
5
5
5 435
5 488
5
5
5 537 861
5
5 970
5
5
5
5
5
5
5
5
5 509
5
5
5
5
5 518
5 484
5 916
5
5
5
5
5
5
5
5
5
5
5
5 966
5 674 905
5 113 221
5
5
5
5 730
5
5
5
5
5
5 650
5
5 648
5
5
5
5
5
5
5
5
5
5
5
5
5
5 812
5
5
5
5 799
5
5
5
5
5
5 637
5
5
5
5
5
5
5
5
5
5
5
5 852
5
5
5
5
5 765
5
5
5
5
5
5
5 980
5
5
5
5 891
5
5
5
5
5
5
5
5
5
5 221
5
5
5
5
5 923
5
5
5
5 548
5
5
5
5
5
5 562
5
5
5 642 885 903
5
5
5
5 861
5 542
5
5 509
5
5
5
5
5
5
5
5 991
5
5
5
5
5
5 925
5
5
5 221
5
5
5
5
5
5
5
5
5
5
5 543 691
5
5
5
5
5
5
5 556
5 812
5
5
5
5
5
5
5
5
5
5
5
5 221
5
5
5
5
5
5
5
5
5 221
5
5
5
5
5 668
5
5
5
5
5
5
5
5
5
5
5
5
5 664 773 817
5
5
5
5
5 812
5
5
5
5
5
5
5
5
5
5
5
5
5
5
5
5
5
5
5
5
5
5
5 573
5
5
5
5
5
5
5
5
5
5
5
5 552 686
5
5
5
5
5
5
5
5
5 606 734
5 221
5
5
5
5
5
5
5 896
5
5
5
5
5
5
5
5
5 565
5
5 503
5
5
5
5
5 730
5
5
5
5
5
5 702
5
5
5
5
5 869
5
5
5
5
5
5
5 730 992
5
5 637
5
5 446
5
5
5
5
5
5
5
5
5 624
5
5
5
5
5 221 562 565 923
5
5 470 717 921
5
5 751
5
5
5
5
5
5
5
5
5
5 524
5
5
5
5
5
5
5 221
5
5
5
5 959
5
5
5
5
5
5
5
5
5
5
5
5
5 946
5
5
5
5
5
5
5 636
5
5
5 221
5 608
5
5
5
5
5
5
5
5
5
5 698
5
5
5
5
5
5
5
5
5
5 501
5 745
5 903
5
5
5
5
5
5
5
